(set-logic HORN)
(declare-fun P0 (Int Int Int Int) Bool)
(declare-fun P15 (Int Int Int) Bool)
(declare-fun P16 (Int) Bool)
(declare-fun P7 (Int) Bool)
(declare-fun P1 (Int) Bool)
(declare-fun P2 (Int Int) Bool)
(declare-fun P3 (Int Int Int) Bool)
(declare-fun P4 (Int) Bool)
(declare-fun P5 (Int Int) Bool)
(declare-fun P11 (Int Int Int Int) Bool)
(declare-fun P12 (Int Int Int Int Int) Bool)
(declare-fun P6 (Int Int Int) Bool)
(declare-fun P8 (Int) Bool)
(declare-fun P9 (Int Int) Bool)
(declare-fun P10 (Int Int Int) Bool)
(declare-fun P13 (Int Int) Bool)
(declare-fun P17 (Int) Bool)
(declare-fun P19 (Int Int) Bool)
(declare-fun P14 (Int Int Int Int Int Int) Bool)
(declare-fun P18 (Int Int) Bool)
(assert (forall ((x0 Int) (x1 Int)) (=> (and (P16 x0) (P16 x1) (= x1 x0)) (P18 x0 x1))))
(assert (forall ((x0 Int) (x1 Int)) (=> (and (P7 x0) (P7 x1) (= x1 x0)) (P13 x0 x1))))
(assert (forall ((x1 Int) (x2 Int) (x3 Int) (x0 Int)) (=> (and (P1 x1) (P2 x1 x2) (P3 x1 x2 x3) (<= 0 x2) (<= (+ 1 x2) x1)) (P0 x1 x2 x3 x0))))
(assert (forall ((x1 Int) (x2 Int) (x0 Int)) (=> (and (P4 x1) (P5 x1 x2) (<= 0 x2) (<= (+ 1 x2) x1) (= x0 0)) (P6 x1 x2 x0))))
(assert (forall ((x1 Int) (x2 Int) (x3 Int) (x4 Int) (x0 Int) (x5 Int)) (=> (and (P8 x1) (P9 x1 x2) (P10 x1 x2 x3) (P11 x1 x2 x3 x4) (P12 x1 x2 x3 x4 x0) (P12 x1 x2 x3 x4 x5) (= x4 x1) (= x5 x0)) (P14 x1 x2 x3 x4 x0 x5))))
(assert (forall ((x5 Int) (x2 Int) (x4 Int) (x0 Int) (x1 Int) (x3 Int)) (=> (and (P8 x4) (P10 x4 x5 x1) (P11 x4 x5 x1 x2) (P12 x4 x5 x1 x2 x3) (P9 x4 x5) (or (< x2 x4) (> x2 x4)) (= x0 (+ 1 x2))) (P4 x5))))
(assert (forall ((x3 Int) (x5 Int) (x2 Int) (x0 Int) (x4 Int) (x1 Int)) (=> (and (P8 x2) (P9 x2 x3) (P10 x2 x3 x4) (P12 x2 x3 x4 x5 x1) (P11 x2 x3 x4 x5) (or (< x5 x2) (> x5 x2)) (= x0 (+ 1 x5))) (P5 x3 x5))))
(assert (forall ((x6 Int) (x2 Int) (x4 Int) (x0 Int) (x5 Int) (x1 Int) (x3 Int)) (=> (and (P8 x4) (P9 x4 x5) (P11 x4 x5 x6 x2) (P12 x4 x5 x6 x2 x1) (P6 x5 x2 x3) (P10 x4 x5 x6) (or (< x2 x4) (> x2 x4)) (= x0 (+ 1 x2))) (P4 x6))))
(assert (forall ((x5 Int) (x6 Int) (x3 Int) (x0 Int) (x4 Int) (x1 Int) (x2 Int)) (=> (and (P8 x3) (P9 x3 x4) (P10 x3 x4 x5) (P12 x3 x4 x5 x6 x1) (P6 x4 x6 x2) (P11 x3 x4 x5 x6) (or (< x6 x3) (> x6 x3)) (= x0 (+ 1 x6))) (P5 x5 x6))))
(assert (forall ((x9 Int) (x7 Int) (x0 Int) (x1 Int) (x3 Int) (x2 Int) (x5 Int) (x8 Int) (x4 Int) (x6 Int)) (=> (and (P9 x9 x4) (P10 x9 x4 x6) (P11 x9 x4 x6 x7) (P12 x9 x4 x6 x7 x3) (P6 x4 x7 x5) (P6 x6 x7 x8) (P8 x9) (or (< x7 x9) (> x7 x9)) (= x0 (+ 1 x7)) (= x1 (+ x3 x2)) (= x2 (* x5 x8))) (P8 x9))))
(assert (forall ((x8 Int) (x9 Int) (x6 Int) (x0 Int) (x1 Int) (x3 Int) (x2 Int) (x4 Int) (x7 Int) (x5 Int)) (=> (and (P10 x8 x9 x5) (P11 x8 x9 x5 x6) (P12 x8 x9 x5 x6 x3) (P6 x9 x6 x4) (P6 x5 x6 x7) (P8 x8) (P9 x8 x9) (or (< x6 x8) (> x6 x8)) (= x0 (+ 1 x6)) (= x1 (+ x3 x2)) (= x2 (* x4 x7))) (P9 x8 x9))))
(assert (forall ((x7 Int) (x8 Int) (x9 Int) (x5 Int) (x0 Int) (x1 Int) (x3 Int) (x2 Int) (x4 Int) (x6 Int)) (=> (and (P11 x7 x8 x9 x5) (P12 x7 x8 x9 x5 x3) (P6 x8 x5 x4) (P6 x9 x5 x6) (P8 x7) (P9 x7 x8) (P10 x7 x8 x9) (or (< x5 x7) (> x5 x7)) (= x0 (+ 1 x5)) (= x1 (+ x3 x2)) (= x2 (* x4 x6))) (P10 x7 x8 x9))))
(assert (forall ((x7 Int) (x8 Int) (x9 Int) (x1 Int) (x5 Int) (x0 Int) (x3 Int) (x2 Int) (x4 Int) (x6 Int)) (=> (and (P11 x7 x8 x9 x5) (P12 x7 x8 x9 x5 x3) (P6 x8 x5 x4) (P6 x9 x5 x6) (P8 x7) (P9 x7 x8) (P10 x7 x8 x9) (or (< x5 x7) (> x5 x7)) (= x0 (+ x3 x2)) (= x1 (+ 1 x5)) (= x2 (* x4 x6))) (P11 x7 x8 x9 x1))))
(assert (forall ((x7 Int) (x8 Int) (x9 Int) (x0 Int) (x1 Int) (x5 Int) (x3 Int) (x2 Int) (x4 Int) (x6 Int)) (=> (and (P11 x7 x8 x9 x5) (P12 x7 x8 x9 x5 x3) (P6 x8 x5 x4) (P6 x9 x5 x6) (P8 x7) (P9 x7 x8) (P10 x7 x8 x9) (or (< x5 x7) (> x5 x7)) (= x0 (+ 1 x5)) (= x1 (+ x3 x2)) (= x2 (* x4 x6))) (P12 x7 x8 x9 x0 x1))))
(assert (forall ((x5 Int) (x6 Int) (x7 Int) (x3 Int) (x1 Int) (x10 Int) (x8 Int) (x9 Int) (x0 Int) (x2 Int) (x4 Int)) (=> (and (P11 x5 x6 x7 x3) (P12 x5 x6 x7 x3 x1) (P6 x6 x3 x2) (P6 x7 x3 x4) (P8 x5) (P9 x5 x6) (P10 x5 x6 x7) (P14 x5 x6 x7 x8 x9 x10) (or (< x3 x5) (> x3 x5)) (= x8 (+ 1 x3)) (= x9 (+ x1 x0)) (= x0 (* x2 x4))) (P14 x5 x6 x7 x3 x1 x10))))
(assert (forall ((x1 Int) (x0 Int)) (=> (and (P19 x1 x0) (P17 x1)) (P7 x1))))
(assert (forall ((x2 Int) (x1 Int) (x0 Int)) (=> (and (P17 x1) (P19 x1 x0) (P13 x1 x2)) (P8 x2))))
(assert (forall ((x1 Int) (x2 Int) (x0 Int)) (=> (and (P19 x2 x0) (P13 x2 x1) (P17 x2)) (P9 x1 x2))))
(assert (forall ((x0 Int) (x1 Int) (x2 Int)) (=> (and (P13 x1 x0) (P17 x1) (P19 x1 x2)) (P10 x0 x1 x2))))
(assert (forall ((x1 Int) (x2 Int) (x3 Int) (x0 Int)) (=> (and (P13 x2 x1) (P17 x2) (P19 x2 x3) (= x0 0)) (P11 x1 x2 x3 x0))))
(assert (forall ((x2 Int) (x3 Int) (x4 Int) (x0 Int) (x1 Int)) (=> (and (P13 x3 x2) (P17 x3) (P19 x3 x4) (= x0 0) (= x1 0)) (P12 x2 x3 x4 x0 x1))))
(assert (forall ((x1 Int) (x2 Int) (x3 Int) (x0 Int)) (=> (and (P13 x1 x0) (P17 x1) (P19 x1 x2) (P14 x0 x1 x2 0 0 x3)) (P15 x1 x2 x3))))
(assert (forall ((x0 Int)) (=> true (P16 x0))))
(assert (forall ((x0 Int) (x1 Int) (x2 Int)) (=> (P18 x1 x2) (P16 x0))))
(assert (forall ((x2 Int) (x1 Int) (x0 Int)) (=> (and (P18 x1 x0) (P18 x1 x2) (<= 0 x1)) (P17 x2))))
(assert (forall ((x0 Int) (x2 Int) (x1 Int)) (=> (and (P18 x1 x0) (P18 x1 x2) (<= 0 x1)) (P19 x0 x2))))
(assert (forall ((x0 Int) (x1 Int) (x3 Int) (x2 Int) (x4 Int)) (=> (and (P1 x2) (P2 x2 x3) (P3 x2 x3 x4) (or (not (> x0 0)) (not (> x1 0))) (or (and (> x0 0) (<= 0 x3)) (and (not (> x0 0)) (not (<= 0 x3)))) (or (and (> x1 0) (< x3 x2)) (and (not (> x1 0)) (not (< x3 x2))))) false)))
(assert (forall ((x0 Int) (x1 Int) (x3 Int) (x2 Int)) (=> (and (P4 x2) (P5 x2 x3) (or (not (> x0 0)) (not (> x1 0))) (or (and (> x0 0) (<= 0 x3)) (and (not (> x0 0)) (not (<= 0 x3)))) (or (and (> x1 0) (< x3 x2)) (and (not (> x1 0)) (not (< x3 x2))))) false)))
(check-sat)
